####################################################################### 
# 
# This file contains crystal structure data downloaded from the 
# Cambridge Structural Database (CSD) hosted by the Cambridge 
# Crystallographic Data Centre (CCDC).
# 
# Full information about CCDC data access policies and citation 
# guidelines are available at http://www.ccdc.cam.ac.uk/access/V1 
# 
# Audit and citation data items may have been added by the CCDC. 
# Please retain this information to preserve the provenance of 
# this file and to allow appropriate attribution of the data. 
# 
#######################################################################

data_2
_audit_block_doi                 10.5517/ccn74qq
_database_code_depnum_ccdc_archive 'CCDC 602693'
loop_
_citation_id
_citation_doi
_citation_year
1 10.1021/cg060228j 2006
_audit_update_record             
;
2006-03-24 deposited with the CCDC.	2020-02-13 downloaded from the CCDC.
;

_audit_creation_method           SHELXL-97
_chemical_name_systematic        
;
?
;
_chemical_name_common            ?
_chemical_melting_point          ?
_chemical_formula_moiety         'C12 H16 Cu2 Mo4 N4 O13'
_chemical_formula_sum            'C12 H16 Cu2 Mo4 N4 O13'
_chemical_formula_weight         935.13

loop_
_atom_type_symbol
_atom_type_description
_atom_type_scat_dispersion_real
_atom_type_scat_dispersion_imag
_atom_type_scat_source
C C 0.0033 0.0016 'International Tables Vol C Tables 4.2.6.8 and 6.1.1.4'
H H 0.0000 0.0000 'International Tables Vol C Tables 4.2.6.8 and 6.1.1.4'
N N 0.0061 0.0033 'International Tables Vol C Tables 4.2.6.8 and 6.1.1.4'
O O 0.0106 0.0060 'International Tables Vol C Tables 4.2.6.8 and 6.1.1.4'
Cu Cu 0.3201 1.2651 'International Tables Vol C Tables 4.2.6.8 and 6.1.1.4'
Mo Mo -1.6832 0.6857 'International Tables Vol C Tables 4.2.6.8 and 6.1.1.4'

_symmetry_cell_setting           triclinic
_symmetry_space_group_name_H-M   P-1

loop_
_symmetry_equiv_pos_as_xyz
'x, y, z'
'-x, -y, -z'

_cell_length_a                   9.6170(18)
_cell_length_b                   10.214(2)
_cell_length_c                   13.207(3)
_cell_angle_alpha                110.069(8)
_cell_angle_beta                 101.127(8)
_cell_angle_gamma                91.093(7)
_cell_volume                     1190.6(4)
_cell_formula_units_Z            2
_cell_measurement_temperature    293(2)
_cell_measurement_reflns_used    2205
_cell_measurement_theta_min      3.1484
_cell_measurement_theta_max      27.4835

_exptl_crystal_description       Prism
_exptl_crystal_colour            'dark red'
_exptl_crystal_size_max          0.2
_exptl_crystal_size_mid          0.1
_exptl_crystal_size_min          0.03
_exptl_crystal_density_meas      ?
_exptl_crystal_density_diffrn    2.609
_exptl_crystal_density_method    'not measured'
_exptl_crystal_F_000             892
_exptl_absorpt_coefficient_mu    3.865
_exptl_absorpt_correction_type   multi-scan
_exptl_absorpt_correction_T_min  0.685
_exptl_absorpt_correction_T_max  0.891
_exptl_absorpt_process_details   '(CrystalClear; Rigaku, 2002)'

_exptl_special_details           
;
?
;

_diffrn_ambient_temperature      293(2)
_diffrn_radiation_wavelength     0.71073
_diffrn_radiation_type           MoK\a
_diffrn_radiation_source         'fine-focus sealed tube'
_diffrn_radiation_monochromator  graphite
_diffrn_measurement_device_type  'Rigaku Mercury CCD'
_diffrn_measurement_method       '\w scan'
_diffrn_detector_area_resol_mean 14.6306
_diffrn_standards_number         ?
_diffrn_standards_interval_count ?
_diffrn_standards_interval_time  ?
_diffrn_standards_decay_%        ?
_diffrn_reflns_number            9259
_diffrn_reflns_av_R_equivalents  0.0504
_diffrn_reflns_av_sigmaI/netI    0.0879
_diffrn_reflns_limit_h_min       -11
_diffrn_reflns_limit_h_max       12
_diffrn_reflns_limit_k_min       -13
_diffrn_reflns_limit_k_max       13
_diffrn_reflns_limit_l_min       -16
_diffrn_reflns_limit_l_max       17
_diffrn_reflns_theta_min         3.15
_diffrn_reflns_theta_max         27.48
_reflns_number_total             5351
_reflns_number_gt                3687
_reflns_threshold_expression     >2sigma(I)

_computing_data_collection       '(CrystalClear; Rigaku, 2002)'
_computing_cell_refinement       '(CrystalClear; Rigaku, 2002)'
_computing_data_reduction        '(CrystalClear; Rigaku, 2002)'
_computing_structure_solution    'SHELXS-97 (Sheldrick, 1997)'
_computing_structure_refinement  'SHELXL-97 (Sheldrick, 1997)'
_computing_molecular_graphics    'SHELXL-97 (Sheldrick, 1997)'
_computing_publication_material  'SHELXL-97 (Sheldrick, 1997)'

_refine_special_details          
;
Refinement of F^2^ against ALL reflections. The weighted R-factor wR and
goodness of fit S are based on F^2^, conventional R-factors R are based
on F, with F set to zero for negative F^2^. The threshold expression of
F^2^ > 2sigma(F^2^) is used only for calculating R-factors(gt) etc. and is
not relevant to the choice of reflections for refinement. R-factors based
on F^2^ are statistically about twice as large as those based on F, and R-
factors based on ALL data will be even larger.
;

_refine_ls_structure_factor_coef Fsqd
_refine_ls_matrix_type           full
_refine_ls_weighting_scheme      calc
_refine_ls_weighting_details     
'calc w=1/[\s^2^(Fo^2^)+(0.1032P)^2^+37.6585P] where P=(Fo^2^+2Fc^2^)/3'
_atom_sites_solution_primary     direct
_atom_sites_solution_secondary   difmap
_atom_sites_solution_hydrogens   geom
_refine_ls_hydrogen_treatment    constr
_refine_ls_extinction_method     none
_refine_ls_extinction_coef       ?
_refine_ls_number_reflns         5351
_refine_ls_number_parameters     319
_refine_ls_number_restraints     0
_refine_ls_R_factor_all          0.1158
_refine_ls_R_factor_gt           0.0793
_refine_ls_wR_factor_ref         0.2578
_refine_ls_wR_factor_gt          0.2346
_refine_ls_goodness_of_fit_ref   1.118
_refine_ls_restrained_S_all      1.118
_refine_ls_shift/su_max          0.007
_refine_ls_shift/su_mean         0.000

loop_
_atom_site_label
_atom_site_type_symbol
_atom_site_fract_x
_atom_site_fract_y
_atom_site_fract_z
_atom_site_U_iso_or_equiv
_atom_site_adp_type
_atom_site_occupancy
_atom_site_symmetry_multiplicity
_atom_site_calc_flag
_atom_site_refinement_flags
_atom_site_disorder_assembly
_atom_site_disorder_group
Mo1 Mo 0.26992(13) 0.47413(13) 0.38506(10) 0.0155(3) Uani 1 1 d . . .
Mo2 Mo 0.38430(13) 0.65709(13) 0.66340(10) 0.0165(3) Uani 1 1 d . . .
Mo3 Mo 0.11252(13) 0.42807(12) 0.58936(10) 0.0155(3) Uani 1 1 d . . .
Mo4 Mo -0.01117(13) 0.25074(13) 0.30078(10) 0.0169(3) Uani 1 1 d . . .
Cu1 Cu 0.2938(3) 0.0709(2) 0.26321(16) 0.0308(5) Uani 1 1 d . . .
Cu2 Cu -0.2823(3) -0.0472(3) 0.24584(17) 0.0390(6) Uani 1 1 d . . .
O1 O 0.4118(13) 0.8377(12) 0.7018(9) 0.030(3) Uani 1 1 d . . .
O2 O 0.4464(12) 0.3990(12) 0.3850(9) 0.027(2) Uani 1 1 d . . .
O3 O -0.0688(12) 0.0798(11) 0.2799(9) 0.027(3) Uani 1 1 d . . .
O4 O 0.0382(11) 0.2678(11) 0.4906(9) 0.022(2) Uani 1 1 d . . .
O5 O -0.0496(13) 0.2597(13) 0.1716(9) 0.033(3) Uani 1 1 d . . .
O6 O 0.3174(11) 0.6443(11) 0.4803(8) 0.021(2) Uani 1 1 d . . .
O7 O -0.1741(10) 0.3502(10) 0.3514(8) 0.017(2) Uani 1 1 d . . .
O8 O -0.0658(11) 0.5267(11) 0.5915(8) 0.021(2) Uani 1 1 d . . .
O9 O 0.1898(11) 0.2631(10) 0.3262(8) 0.018(2) Uani 1 1 d . . .
O10 O 0.2367(12) 0.4969(12) 0.2616(8) 0.025(2) Uani 1 1 d . . .
O11 O 0.2940(10) 0.4442(10) 0.5600(8) 0.015(2) Uani 1 1 d . . .
O12 O 0.4225(11) 0.6341(12) 0.7853(9) 0.026(2) Uani 1 1 d . . .
O13 O 0.1425(12) 0.4036(13) 0.7104(8) 0.026(2) Uani 1 1 d . . .
N1 N 0.2886(14) 0.0591(14) 0.1113(10) 0.024(3) Uani 1 1 d . . .
N2 N 0.3009(16) 0.0690(15) -0.0920(10) 0.030(3) Uani 1 1 d . . .
N3 N -0.2888(16) -0.0593(15) 0.3876(10) 0.028(3) Uani 1 1 d . . .
N4 N -0.3070(16) -0.0440(13) 0.5981(10) 0.026(3) Uani 1 1 d . . .
C1 C 0.3102(18) -0.0522(17) 0.0355(13) 0.027(3) Uani 1 1 d . . .
C2 C 0.316(2) -0.0456(19) -0.0685(13) 0.036(4) Uani 1 1 d . . .
H2A H 0.3311 -0.1266 -0.1234 0.043 Uiso 1 1 calc R . .
C3 C 0.273(2) 0.1846(17) -0.0104(15) 0.037(4) Uani 1 1 d . . .
C4 C 0.270(2) 0.1756(19) 0.0885(14) 0.040(5) Uani 1 1 d . . .
H4A H 0.2546 0.2555 0.1441 0.048 Uiso 1 1 calc R . .
C5 C 0.323(3) -0.191(2) 0.0500(19) 0.063(7) Uani 1 1 d . . .
H5A H 0.3192 -0.1804 0.1246 0.095 Uiso 1 1 calc R . .
H5B H 0.4116 -0.2251 0.0347 0.095 Uiso 1 1 calc R . .
H5C H 0.2457 -0.2565 0.0002 0.095 Uiso 1 1 calc R . .
C6 C 0.252(4) 0.316(3) -0.0378(19) 0.082(10) Uani 1 1 d . . .
H6A H 0.2081 0.2916 -0.1144 0.123 Uiso 1 1 calc R . .
H6B H 0.3430 0.3680 -0.0231 0.123 Uiso 1 1 calc R . .
H6C H 0.1926 0.3734 0.0067 0.123 Uiso 1 1 calc R . .
C7 C -0.2094(18) 0.0369(15) 0.4763(12) 0.025(3) Uani 1 1 d . . .
H7A H -0.1448 0.0984 0.4668 0.030 Uiso 1 1 calc R . .
C8 C -0.2185(17) 0.0499(16) 0.5836(12) 0.022(3) Uani 1 1 d . . .
C9 C -0.3885(17) -0.1404(15) 0.5083(12) 0.021(3) Uani 1 1 d . . .
H9A H -0.4524 -0.2025 0.5179 0.025 Uiso 1 1 calc R . .
C10 C -0.3812(16) -0.1514(15) 0.4022(11) 0.019(3) Uani 1 1 d . . .
C11 C -0.130(2) 0.161(2) 0.6795(16) 0.044(5) Uani 1 1 d . . .
H11A H -0.1011 0.1267 0.7385 0.066 Uiso 1 1 calc R . .
H11B H -0.1841 0.2401 0.7033 0.066 Uiso 1 1 calc R . .
H11C H -0.0472 0.1899 0.6588 0.066 Uiso 1 1 calc R . .
C12 C -0.468(2) -0.263(2) 0.3023(13) 0.035(4) Uani 1 1 d . . .
H12A H -0.4062 -0.3113 0.2555 0.052 Uiso 1 1 calc R . .
H12B H -0.5360 -0.2205 0.2628 0.052 Uiso 1 1 calc R . .
H12C H -0.5166 -0.3276 0.3245 0.052 Uiso 1 1 calc R . .

loop_
_atom_site_aniso_label
_atom_site_aniso_U_11
_atom_site_aniso_U_22
_atom_site_aniso_U_33
_atom_site_aniso_U_23
_atom_site_aniso_U_13
_atom_site_aniso_U_12
Mo1 0.0138(6) 0.0183(6) 0.0156(6) 0.0054(5) 0.0069(5) 0.0017(5)
Mo2 0.0135(6) 0.0183(6) 0.0164(6) 0.0033(5) 0.0054(5) 0.0026(5)
Mo3 0.0136(6) 0.0155(6) 0.0182(6) 0.0056(5) 0.0060(5) 0.0016(5)
Mo4 0.0143(6) 0.0163(6) 0.0178(6) 0.0019(5) 0.0053(5) 0.0006(5)
Cu1 0.0495(14) 0.0321(11) 0.0157(9) 0.0111(8) 0.0130(9) 0.0065(10)
Cu2 0.0560(15) 0.0427(14) 0.0197(10) 0.0132(9) 0.0089(10) -0.0119(11)
O1 0.035(7) 0.028(6) 0.020(5) -0.003(4) 0.010(5) 0.003(5)
O2 0.026(6) 0.030(6) 0.023(6) 0.002(5) 0.012(5) 0.005(5)
O3 0.027(6) 0.019(6) 0.031(6) -0.001(4) 0.012(5) -0.002(5)
O4 0.023(5) 0.019(5) 0.025(5) 0.010(4) 0.008(4) -0.005(4)
O5 0.031(7) 0.043(7) 0.027(6) 0.018(5) 0.004(5) -0.001(6)
O6 0.022(5) 0.025(6) 0.020(5) 0.009(4) 0.011(4) 0.007(4)
O7 0.018(5) 0.013(5) 0.020(5) 0.001(4) 0.011(4) 0.010(4)
O8 0.019(5) 0.023(5) 0.019(5) 0.004(4) 0.007(4) -0.002(4)
O9 0.025(5) 0.013(5) 0.015(5) 0.001(4) 0.009(4) 0.007(4)
O10 0.031(6) 0.029(6) 0.016(5) 0.007(4) 0.010(5) 0.005(5)
O11 0.010(4) 0.013(5) 0.020(5) 0.002(4) 0.003(4) 0.003(4)
O12 0.019(5) 0.034(6) 0.022(5) 0.008(5) 0.004(4) 0.001(5)
O13 0.025(6) 0.042(7) 0.016(5) 0.014(5) 0.007(4) 0.005(5)
N1 0.029(7) 0.025(7) 0.015(6) 0.008(5) -0.003(5) 0.004(6)
N2 0.044(9) 0.034(8) 0.015(6) 0.010(5) 0.012(6) -0.014(7)
N3 0.036(8) 0.033(8) 0.018(6) 0.010(6) 0.009(6) 0.007(6)
N4 0.048(9) 0.014(6) 0.021(6) 0.006(5) 0.017(6) 0.003(6)
C1 0.030(9) 0.026(8) 0.024(8) 0.010(6) 0.002(7) 0.006(7)
C2 0.050(11) 0.029(9) 0.022(8) -0.002(7) 0.017(8) -0.016(8)
C3 0.059(12) 0.016(8) 0.031(9) 0.004(7) 0.009(9) 0.004(8)
C4 0.071(14) 0.029(10) 0.026(9) 0.006(7) 0.026(9) 0.032(9)
C5 0.10(2) 0.055(14) 0.043(12) 0.020(11) 0.026(13) 0.036(14)
C6 0.16(3) 0.065(17) 0.039(13) 0.042(12) 0.019(16) 0.013(18)
C7 0.040(9) 0.015(7) 0.019(7) 0.005(6) 0.007(7) -0.008(7)
C8 0.027(8) 0.022(8) 0.023(7) 0.016(6) 0.004(6) 0.017(6)
C9 0.028(8) 0.017(7) 0.022(7) 0.011(6) 0.010(6) -0.001(6)
C10 0.025(8) 0.019(7) 0.013(6) 0.006(5) 0.004(6) 0.000(6)
C11 0.049(12) 0.043(12) 0.046(12) 0.025(9) 0.005(10) 0.000(9)
C12 0.042(10) 0.045(11) 0.021(8) 0.015(7) 0.009(7) 0.005(8)

_geom_special_details            
;
All esds (except the esd in the dihedral angle between two l.s. planes)
are estimated using the full covariance matrix. The cell esds are taken
into account individually in the estimation of esds in distances, angles
and torsion angles; correlations between esds in cell parameters are only
used when they are defined by crystal symmetry. An approximate (isotropic)
treatment of cell esds is used for estimating esds involving l.s. planes.
;

loop_
_geom_bond_atom_site_label_1
_geom_bond_atom_site_label_2
_geom_bond_distance
_geom_bond_site_symmetry_2
_geom_bond_publ_flag
Mo1 O10 1.696(10) . ?
Mo1 O6 1.749(10) . ?
Mo1 O2 1.876(11) . ?
Mo1 O8 2.046(10) 2_566 ?
Mo1 O9 2.098(10) . ?
Mo1 O11 2.401(10) . ?
Mo2 O12 1.679(11) . ?
Mo2 O1 1.738(12) . ?
Mo2 O2 1.890(11) 2_666 ?
Mo2 O7 1.990(10) 2_566 ?
Mo2 O11 2.186(9) . ?
Mo2 O6 2.337(10) . ?
Mo3 O13 1.673(10) . ?
Mo3 O4 1.738(10) . ?
Mo3 O11 1.875(9) . ?
Mo3 O8 2.005(11) . ?
Mo3 O7 2.155(10) 2_566 ?
Mo4 O5 1.709(11) . ?
Mo4 O3 1.734(11) . ?
Mo4 O9 1.891(10) . ?
Mo4 O7 1.984(9) . ?
Mo4 O8 2.247(10) 2_566 ?
Mo4 O4 2.404(10) . ?
Cu1 N4 1.924(13) 2_556 ?
Cu1 N1 1.958(13) . ?
Cu1 O9 2.196(10) . ?
Cu2 N2 1.939(12) 2 ?
Cu2 N3 1.931(13) . ?
Cu2 O3 2.289(11) . ?
O2 Mo2 1.890(11) 2_666 ?
O7 Mo2 1.990(10) 2_566 ?
O7 Mo3 2.155(10) 2_566 ?
O8 Mo1 2.046(10) 2_566 ?
O8 Mo4 2.247(10) 2_566 ?
N1 C1 1.28(2) . ?
N1 C4 1.33(2) . ?
N2 C2 1.31(2) . ?
N2 C3 1.37(2) . ?
N2 Cu2 1.939(12) 2 ?
N3 C10 1.37(2) . ?
N3 C7 1.33(2) . ?
N4 C8 1.36(2) . ?
N4 C9 1.342(19) . ?
N4 Cu1 1.924(13) 2_556 ?
C1 C2 1.41(2) . ?
C1 C5 1.50(3) . ?
C2 H2A 0.9300 . ?
C3 C4 1.35(2) . ?
C3 C6 1.52(3) . ?
C4 H4A 0.9300 . ?
C5 H5A 0.9600 . ?
C5 H5B 0.9600 . ?
C5 H5C 0.9600 . ?
C6 H6A 0.9600 . ?
C6 H6B 0.9600 . ?
C6 H6C 0.9600 . ?
C7 C8 1.40(2) . ?
C7 H7A 0.9300 . ?
C8 C11 1.48(2) . ?
C9 C10 1.382(19) . ?
C9 H9A 0.9300 . ?
C10 C12 1.50(2) . ?
C11 H11A 0.9600 . ?
C11 H11B 0.9600 . ?
C11 H11C 0.9600 . ?
C12 H12A 0.9600 . ?
C12 H12B 0.9600 . ?
C12 H12C 0.9600 . ?

loop_
_geom_angle_atom_site_label_1
_geom_angle_atom_site_label_2
_geom_angle_atom_site_label_3
_geom_angle
_geom_angle_site_symmetry_1
_geom_angle_site_symmetry_3
_geom_angle_publ_flag
O10 Mo1 O6 103.5(5) . . ?
O10 Mo1 O2 101.3(5) . . ?
O6 Mo1 O2 102.1(5) . . ?
O10 Mo1 O8 98.3(5) . 2_566 ?
O6 Mo1 O8 93.0(4) . 2_566 ?
O2 Mo1 O8 151.6(5) . 2_566 ?
O10 Mo1 O9 97.0(5) . . ?
O6 Mo1 O9 157.2(4) . . ?
O2 Mo1 O9 83.4(4) . . ?
O8 Mo1 O9 73.9(4) 2_566 . ?
O10 Mo1 O11 174.7(4) . . ?
O6 Mo1 O11 76.7(4) . . ?
O2 Mo1 O11 83.8(4) . . ?
O8 Mo1 O11 76.4(4) 2_566 . ?
O9 Mo1 O11 82.1(3) . . ?
O12 Mo2 O1 102.5(5) . . ?
O12 Mo2 O2 98.7(5) . 2_666 ?
O1 Mo2 O2 101.0(5) . 2_666 ?
O12 Mo2 O7 96.6(5) . 2_566 ?
O1 Mo2 O7 95.9(5) . 2_566 ?
O2 Mo2 O7 154.1(4) 2_666 2_566 ?
O12 Mo2 O11 98.4(5) . . ?
O1 Mo2 O11 156.9(5) . . ?
O2 Mo2 O11 85.3(4) 2_666 . ?
O7 Mo2 O11 71.9(4) 2_566 . ?
O12 Mo2 O6 169.3(5) . . ?
O1 Mo2 O6 88.2(5) . . ?
O2 Mo2 O6 80.3(4) 2_666 . ?
O7 Mo2 O6 80.8(4) 2_566 . ?
O11 Mo2 O6 70.8(4) . . ?
O13 Mo3 O4 105.9(5) . . ?
O13 Mo3 O11 104.6(5) . . ?
O4 Mo3 O11 102.6(4) . . ?
O13 Mo3 O8 102.7(5) . . ?
O4 Mo3 O8 97.6(5) . . ?
O11 Mo3 O8 139.8(4) . . ?
O13 Mo3 O7 98.9(5) . 2_566 ?
O4 Mo3 O7 154.8(4) . 2_566 ?
O11 Mo3 O7 74.7(4) . 2_566 ?
O8 Mo3 O7 72.3(4) . 2_566 ?
O5 Mo4 O3 103.9(6) . . ?
O5 Mo4 O9 99.9(5) . . ?
O3 Mo4 O9 107.2(5) . . ?
O5 Mo4 O7 96.0(5) . . ?
O3 Mo4 O7 100.8(5) . . ?
O9 Mo4 O7 143.2(4) . . ?
O5 Mo4 O8 102.7(5) . 2_566 ?
O3 Mo4 O8 152.8(5) . 2_566 ?
O9 Mo4 O8 73.5(4) . 2_566 ?
O7 Mo4 O8 70.7(4) . 2_566 ?
O5 Mo4 O4 173.0(5) . . ?
O3 Mo4 O4 82.1(4) . . ?
O9 Mo4 O4 81.4(4) . . ?
O7 Mo4 O4 79.2(4) . . ?
O8 Mo4 O4 71.0(4) 2_566 . ?
N4 Cu1 N1 168.5(6) 2_556 . ?
N4 Cu1 O9 89.7(5) 2_556 . ?
N1 Cu1 O9 101.4(5) . . ?
N2 Cu2 N3 168.6(6) 2 . ?
N2 Cu2 O3 87.4(5) 2 . ?
N3 Cu2 O3 103.0(5) . . ?
Mo1 O2 Mo2 158.0(7) . 2_666 ?
Mo4 O3 Cu2 136.9(6) . . ?
Mo3 O4 Mo4 117.4(5) . . ?
Mo1 O6 Mo2 114.1(5) . . ?
Mo4 O7 Mo2 146.3(5) . 2_566 ?
Mo4 O7 Mo3 108.0(4) . 2_566 ?
Mo2 O7 Mo3 102.6(4) 2_566 2_566 ?
Mo3 O8 Mo1 146.2(6) . 2_566 ?
Mo3 O8 Mo4 103.8(4) . 2_566 ?
Mo1 O8 Mo4 98.6(4) 2_566 2_566 ?
Mo4 O9 Mo1 109.4(5) . . ?
Mo4 O9 Cu1 118.5(5) . . ?
Mo1 O9 Cu1 130.7(5) . . ?
Mo3 O11 Mo2 105.4(4) . . ?
Mo3 O11 Mo1 109.0(4) . . ?
Mo2 O11 Mo1 97.2(4) . . ?
C1 N1 C4 118.9(14) . . ?
C1 N1 Cu1 123.4(11) . . ?
C4 N1 Cu1 117.6(11) . . ?
C2 N2 C3 116.5(14) . . ?
C2 N2 Cu2 116.2(11) . 2 ?
C3 N2 Cu2 126.1(13) . 2 ?
C10 N3 C7 118.3(13) . . ?
C10 N3 Cu2 123.7(10) . . ?
C7 N3 Cu2 117.5(11) . . ?
C8 N4 C9 118.3(13) . . ?
C8 N4 Cu1 123.0(11) . 2_556 ?
C9 N4 Cu1 117.4(10) . 2_556 ?
N1 C1 C2 118.6(16) . . ?
N1 C1 C5 123.3(16) . . ?
C2 C1 C5 118.0(16) . . ?
N2 C2 C1 123.4(15) . . ?
N2 C2 H2A 118.3 . . ?
C1 C2 H2A 118.3 . . ?
N2 C3 C4 118.7(16) . . ?
N2 C3 C6 116.8(17) . . ?
C4 C3 C6 124.5(17) . . ?
N1 C4 C3 123.9(15) . . ?
N1 C4 H4A 118.1 . . ?
C3 C4 H4A 118.1 . . ?
C1 C5 H5A 109.5 . . ?
C1 C5 H5B 109.5 . . ?
H5A C5 H5B 109.5 . . ?
C1 C5 H5C 109.5 . . ?
H5A C5 H5C 109.5 . . ?
H5B C5 H5C 109.5 . . ?
C3 C6 H6A 109.5 . . ?
C3 C6 H6B 109.5 . . ?
H6A C6 H6B 109.5 . . ?
C3 C6 H6C 109.5 . . ?
H6A C6 H6C 109.5 . . ?
H6B C6 H6C 109.5 . . ?
N3 C7 C8 122.8(15) . . ?
N3 C7 H7A 118.6 . . ?
C8 C7 H7A 118.6 . . ?
N4 C8 C7 118.8(14) . . ?
N4 C8 C11 120.7(14) . . ?
C7 C8 C11 120.5(15) . . ?
N4 C9 C10 122.7(14) . . ?
N4 C9 H9A 118.6 . . ?
C10 C9 H9A 118.6 . . ?
N3 C10 C9 119.0(13) . . ?
N3 C10 C12 118.4(13) . . ?
C9 C10 C12 122.6(14) . . ?
C8 C11 H11A 109.5 . . ?
C8 C11 H11B 109.5 . . ?
H11A C11 H11B 109.5 . . ?
C8 C11 H11C 109.5 . . ?
H11A C11 H11C 109.5 . . ?
H11B C11 H11C 109.5 . . ?
C10 C12 H12A 109.5 . . ?
C10 C12 H12B 109.5 . . ?
H12A C12 H12B 109.5 . . ?
C10 C12 H12C 109.5 . . ?
H12A C12 H12C 109.5 . . ?
H12B C12 H12C 109.5 . . ?

_diffrn_measured_fraction_theta_max 0.978
_diffrn_reflns_theta_full        27.48
_diffrn_measured_fraction_theta_full 0.978
_refine_diff_density_max         2.553
_refine_diff_density_min         -1.681
_refine_diff_density_rms         0.361
